p cnf 36 103
a 1 23 0
e 2 3 4 5 6 7 8 9 10 11 12 13 14 15 16 17 18 19 20 21 22 24 25 26 27 28 29 30 31 32 33 34 35 36 0
3 2 0
3 -1 0
-2 1 -3 0
-1 3 -4 0
1 -3 -4 0
-1 -3 4 0
1 3 4 0
-5 -1 -6 0
5 1 -6 0
-5 1 6 0
5 -1 6 0
-7 4 0
-7 -6 0
-4 6 7 0
-8 -7 0
-8 -6 0
7 6 8 0
10 9 0
10 1 0
-9 -1 -10 0
11 8 0
11 10 0
-8 -10 -11 0
13 -12 0
13 1 0
12 -1 -13 0
-14 11 0
-14 -13 0
-11 13 14 0
16 -6 0
16 2 0
6 -2 -16 0
-15 -16 -17 0
15 16 -17 0
-15 16 17 0
15 -16 17 0
-18 -2 0
-18 17 0
2 -17 18 0
19 -6 0
19 -6 0
6 -19 0
-18 19 -20 0
18 -19 -20 0
-18 -19 20 0
18 19 20 0
-21 7 0
-21 17 0
-7 -17 21 0
21 -5 -22 0
-21 5 -22 0
21 5 22 0
-21 -5 22 0
-23 20 0
-23 -22 0
-20 22 23 0
24 -25 -26 0
-24 25 -26 0
24 25 26 0
-24 -25 26 0
-26 25 -27 0
26 -25 -27 0
-26 -25 27 0
26 25 27 0
28 -23 0
28 -27 0
23 27 -28 0
29 -5 0
29 4 0
5 -4 -29 0
3 -26 -30 0
-3 26 -30 0
3 26 30 0
-3 -26 30 0
31 6 0
31 30 0
-6 -30 -31 0
32 29 0
32 -31 0
-29 31 -32 0
-33 28 0
-33 32 0
-28 -32 33 0
-7 -3 -34 0
7 3 -34 0
-7 3 34 0
7 -3 34 0
-35 33 0
-35 34 0
-33 -34 35 0
36 14 0
36 35 0
-14 -35 -36 0
-35 -20 -19 0
13 -1 31 -29 -24 0
32 -28 -23 -4 27 29 5 0
-1 -5 19 0
3 35 -22 -26 -17 24 0
-34 -19 -3 -31 5 0
-31 28 9 10 0
14 -32 7 0
-31 21 30 0
36 0
